; K = 1
; Transition relation
(define-fun T ((%init Bool) ($e01$0 Bool) ($e02$0 Bool) ($e03$0 Bool) ($e04$0 Bool) ($e05$0 Bool) ($e06$0 Bool) ($e07$0 Bool) ($e08$0 Bool) ($e09$0 Bool) ($e10$0 Bool) ($e11$0 Bool) ($e12$0 Bool) ($V76_erreur$0 Bool) ($OK$0 Bool) ($V170_X$0 Bool) ($V175_Sofar$0 Bool) ($e01$1 Bool) ($e02$1 Bool) ($e03$1 Bool) ($e04$1 Bool) ($e05$1 Bool) ($e06$1 Bool) ($e07$1 Bool) ($e08$1 Bool) ($e09$1 Bool) ($e10$1 Bool) ($e11$1 Bool) ($e12$1 Bool) ($V76_erreur$1 Bool) ($OK$1 Bool) ($V170_X$1 Bool) ($V175_Sofar$1 Bool)) Bool (and (= $OK$1 (=> $V175_Sofar$1 (not $V76_erreur$1))) (= $V170_X$1 (or (or (or (or (or (or (or (or (or (or (or (or (and (and (and (and (and (and (and (and (and (and (and (not $e01$1) (not $e02$1)) (not $e03$1)) (not $e04$1)) (not $e05$1)) (not $e06$1)) (not $e07$1)) (not $e08$1)) (not $e09$1)) (not $e10$1)) (not $e11$1)) (not $e12$1)) (and (and (and (and (and (and (and (and (and (and (and $e01$1 (not $e02$1)) (not $e03$1)) (not $e04$1)) (not $e05$1)) (not $e06$1)) (not $e07$1)) (not $e08$1)) (not $e09$1)) (not $e10$1)) (not $e11$1)) (not $e12$1))) (and (and (and (and (and (and (and (and (and (and (and (not $e01$1) $e02$1) (not $e03$1)) (not $e04$1)) (not $e05$1)) (not $e06$1)) (not $e07$1)) (not $e08$1)) (not $e09$1)) (not $e10$1)) (not $e11$1)) (not $e12$1))) (and (and (and (and (and (and (and (and (and (and (and (not $e01$1) (not $e02$1)) $e03$1) (not $e04$1)) (not $e05$1)) (not $e06$1)) (not $e07$1)) (not $e08$1)) (not $e09$1)) (not $e10$1)) (not $e11$1)) (not $e12$1))) (and (and (and (and (and (and (and (and (and (and (and (not $e01$1) (not $e02$1)) (not $e03$1)) $e04$1) (not $e05$1)) (not $e06$1)) (not $e07$1)) (not $e08$1)) (not $e09$1)) (not $e10$1)) (not $e11$1)) (not $e12$1))) (and (and (and (and (and (and (and (and (and (and (and (not $e01$1) (not $e02$1)) (not $e03$1)) (not $e04$1)) $e05$1) (not $e06$1)) (not $e07$1)) (not $e08$1)) (not $e09$1)) (not $e10$1)) (not $e11$1)) (not $e12$1))) (and (and (and (and (and (and (and (and (and (and (and (not $e01$1) (not $e02$1)) (not $e03$1)) (not $e04$1)) (not $e05$1)) $e06$1) (not $e07$1)) (not $e08$1)) (not $e09$1)) (not $e10$1)) (not $e11$1)) (not $e12$1))) (and (and (and (and (and (and (and (and (and (and (and (not $e01$1) (not $e02$1)) (not $e03$1)) (not $e04$1)) (not $e05$1)) (not $e06$1)) $e07$1) (not $e08$1)) (not $e09$1)) (not $e10$1)) (not $e11$1)) (not $e12$1))) (and (and (and (and (and (and (and (and (and (and (and (not $e01$1) (not $e02$1)) (not $e03$1)) (not $e04$1)) (not $e05$1)) (not $e06$1)) (not $e07$1)) $e08$1) (not $e09$1)) (not $e10$1)) (not $e11$1)) (not $e12$1))) (and (and (and (and (and (and (and (and (and (and (and (not $e01$1) (not $e02$1)) (not $e03$1)) (not $e04$1)) (not $e05$1)) (not $e06$1)) (not $e07$1)) (not $e08$1)) $e09$1) (not $e10$1)) (not $e11$1)) (not $e12$1))) (and (and (and (and (and (and (and (and (and (and (and (not $e01$1) (not $e02$1)) (not $e03$1)) (not $e04$1)) (not $e05$1)) (not $e06$1)) (not $e07$1)) (not $e08$1)) (not $e09$1)) $e10$1) (not $e11$1)) (not $e12$1))) (and (and (and (and (and (and (and (and (and (and (and (not $e01$1) (not $e02$1)) (not $e03$1)) (not $e04$1)) (not $e05$1)) (not $e06$1)) (not $e07$1)) (not $e08$1)) (not $e09$1)) (not $e10$1)) $e11$1) (not $e12$1))) (and (and (and (and (and (and (and (and (and (and (and (not $e01$1) (not $e02$1)) (not $e03$1)) (not $e04$1)) (not $e05$1)) (not $e06$1)) (not $e07$1)) (not $e08$1)) (not $e09$1)) (not $e10$1)) (not $e11$1)) $e12$1))) (= $V175_Sofar$1 (ite %init $V170_X$1 (and $V170_X$1 $V175_Sofar$0)))))
; Universally quantified variables
(declare-fun $e01$~1 () Bool)
(declare-fun $e02$~1 () Bool)
(declare-fun $e03$~1 () Bool)
(declare-fun $e04$~1 () Bool)
(declare-fun $e05$~1 () Bool)
(declare-fun $e06$~1 () Bool)
(declare-fun $e07$~1 () Bool)
(declare-fun $e08$~1 () Bool)
(declare-fun $e09$~1 () Bool)
(declare-fun $e10$~1 () Bool)
(declare-fun $e11$~1 () Bool)
(declare-fun $e12$~1 () Bool)
(declare-fun $V76_erreur$~1 () Bool)
(declare-fun $OK$~1 () Bool)
(declare-fun $V170_X$~1 () Bool)
(declare-fun $V175_Sofar$~1 () Bool)
(declare-fun $e01$0 () Bool)
(declare-fun $e02$0 () Bool)
(declare-fun $e03$0 () Bool)
(declare-fun $e04$0 () Bool)
(declare-fun $e05$0 () Bool)
(declare-fun $e06$0 () Bool)
(declare-fun $e07$0 () Bool)
(declare-fun $e08$0 () Bool)
(declare-fun $e09$0 () Bool)
(declare-fun $e10$0 () Bool)
(declare-fun $e11$0 () Bool)
(declare-fun $e12$0 () Bool)
(declare-fun $V76_erreur$0 () Bool)
(declare-fun $OK$0 () Bool)
(declare-fun $V170_X$0 () Bool)
(declare-fun $V175_Sofar$0 () Bool)
(assert (T true $e01$~1 $e02$~1 $e03$~1 $e04$~1 $e05$~1 $e06$~1 $e07$~1 $e08$~1 $e09$~1 $e10$~1 $e11$~1 $e12$~1 $V76_erreur$~1 $OK$~1 $V170_X$~1 $V175_Sofar$~1 $e01$0 $e02$0 $e03$0 $e04$0 $e05$0 $e06$0 $e07$0 $e08$0 $e09$0 $e10$0 $e11$0 $e12$0 $V76_erreur$0 $OK$0 $V170_X$0 $V175_Sofar$0))
